p tw 20 53
0 1
0 9
0 5
0 7
0 2
0 13
0 19
1 10
1 13
1 8
1 11
2 3
2 6
2 16
2 8
3 12
3 13
3 4
3 9
4 5
4 13
4 15
5 9
5 17
5 18
5 15
5 12
6 12
6 11
6 9
7 8
7 18
7 14
8 15
9 10
9 11
10 16
10 15
10 14
10 17
11 12
11 17
11 13
12 17
12 15
12 16
13 15
13 19
13 16
14 15
14 17
14 18
15 17
